c array.sh: path:     /data/qbf/qbf20/PCNF/ntrivil_query42_1344n.qdimacs
c array.sh: name:     ntrivil_query42_1344n
c array.sh: task:     80
c array.sh: host:     c3n28
c array.sh: uname:    Linux c3n28 4.15.0-135-generic #139-Ubuntu SMP Mon Jan 18 17:38:24 UTC 2021 x86_64 x86_64 x86_64 GNU/Linux
c array.sh: start:    Thu Feb 18 09:53:15 CET 2021
c array.sh: noturbo:  1
c array.sh: governor: 32 performance
c array.sh: tmp:      1%
c array.sh: unzipped: /tmp/local-unzipped-18838260-80-ntrivil_query42_1344n.cnf
*** qbfcert: using tmp directory:
*** qbfcert:   /tmp
trace-size: 648266
solving-res 20
proof-size: 110839
cert-size: 9679
cert-header: aag 2021 1939 0 37 37
merged-header: p cnf 23472 58400
merged-size: 906317
c ---- [ banner ] ------------------------------------------------------------
c
c KISSAT SAT Solver
c Copyright (c) 2019-2020 Armin Biere JKU Linz
c 
c Version 1.0.3 59813addcacc4d6fb880ebdd63685600475aa940
c gcc (Ubuntu 7.5.0-3ubuntu1~18.04) 7.5.0 -W -Wall -O3 -DNEMBEDDED -DNDEBUG -DNMETRICS -DNSTATISTICS
c Sun Feb 14 23:58:54 CET 2021 Linux cluster3 4.15.0-135-generic x86_64
c
c ---- [ parsing ] -----------------------------------------------------------
c
c opened and reading DIMACS file:
c 
c   /tmp/qbfcert_merged_cnf7562.cnf
c 
c parsed 'p cnf 23472 58400' header
c closing input after reading 906317 bytes (885 KB)
c finished parsing after 0.02 seconds
c
c ---- [ solving ] -----------------------------------------------------------
c
c  seconds reductions redundant irredundant
c         MB   restarts    trail     variables
c          level  conflicts   glue        remaining
c
c *  0.02  6 0  0  0   0   0 0% 0 58369 2666 11%
c {  0.02  6 0  0  0   0   0 0% 0 58369 2666 11%
c i  0.02  6 8  0  0   3   0 35% 0 58369 2662 11%
c i  0.02  6 7  0  1   6   1 34% 0 58369 2657 11%
c i  0.02  6 7  0  1   8   2 35% 0 58369 2629 11%
c }  0.02  6 7  0  1  10   2 31% 0 58369 2435 10%
c 0  0.02  6 7  0  1  10   2 31% 0 58369 2435 10%
c
c ---- [ result ] ------------------------------------------------------------
c
s UNSATISFIABLE
c
c ---- [ profiling ] ---------------------------------------------------------
c
c           0.02   95.13 %  parse
c           0.00    4.13 %  search
c           0.00    3.67 %  focused
c           0.00    0.00 %  simplify
c =============================================
c           0.02  100.00 %  total
c
c ---- [ statistics ] --------------------------------------------------------
c
c conflicts:                               10              535.85 per second
c decisions:                               35                3.50 per conflict
c propagations:                         23282          1247562    per second
c restarts:                                 1               10.00 interval
c
c ---- [ resources ] ---------------------------------------------------------
c
c maximum-resident-set-size:          5873664 bytes          6 MB
c process-time:                             0s               0.02 seconds
c
c ---- [ shutting down ] -----------------------------------------------------
c
c exit 20
*** qbfcert: VALID
c array.sh: end:      Thu Feb 18 09:53:15 CET 2021
